L=18;
no=12;
njo=[9,10,8,10,10,9,10,8,10,8,9,8];
djo=[22,24,16,17,28,22,29,22,27,24,26,19];
trab=[3,2,3,4,2,2,3,3,6,3,6,6,2,3,3,2,3,6,4,6,3,6,6,2,3,3,2,12,2,6,3,3,3,3,4,6,3,2,2,3,2,6,3,3,2,12,4,3,12,4,3,3,3,2,2,3,12,2,3,2,3,6,4,3,18,6,3,2,3,6,3,3,3,4,6,2,3,2,6,2,4,18,2,6,2,4,3,3,2,4,3,2,3,2,18,3,3,2,6,6,3,6,3,2,12,3,2,6,6,2,4,4,3,6,3,12,6,4,2,6,6,2,2,6,6,2,12,3,2,6,2,4,2,2,6,3,6,6,2,6,6,2,2,4,3,3,6,6,6,6,3,6,6,2,6,3,6,6,6,3,3,12,6,3,12,4,2,6,6,4,4,6,6,6,3,6,3,18,3,4,3,12,4,6,3,2,3,2,3,6,6,18,4,4,12,3,3,6,2,2,4,3,6,3,6,12,3,18,2,6,4,2,3,3,6,3,2,3,6,6,2,12,3,4,2,4,3,4,6,3,2,2,2,3,2,18,18,18,2,2,4,2,2,3,2,12,4,3,6,2,3,3,3,6,18,12,3,3,3,12,2,4,2,6,4,3,3,3,18,2,2,6,3,18,6,6];
nprec=16;
prec=[| 5, 10,
      | 11, 24,
      | 13, 25,
      | 18, 27,
      | 28, 38,
      | 29, 42,
      | 43, 49,
      | 55, 61,
      | 57, 72,
      | 64, 73,
      | 68, 75,
      | 73, 77,
      | 82, 87,
      | 87, 96,
      | 89, 98,
      | 95, 102 |];


%%%%%%%%%%%%%%%%%%%%%%%%%%%%%%%%%%%%%%%%%%%%%%%%%%%%%%%%%%%%%%%%%%%%%%
% 12
%
%  9   1   9  22  81
%  3   2   3   4   2   2   3   3   6   3   6   6   2   3   3   2   3   6   4   6   3   6 
%  1   1   1   0   0
%  1   2   2   0   0
%  1   3   3   0   0
%  1   4   4   0   0
%  1   5   5   0   1
%      2   1  10
%  1   6   6   0   0
%  1   7   7   0   0
%  1   8   8   0   0
%  1   9   9   0   0
%
% 10  10  19  24  96
%  6   2   3   3   2  12   2   6   3   3   3   3   4   6   3   2   2   3   2   6   3   3   2  12 
%  2   1  10   1   0
%      1   5   5
%  2   2  11   0   1
%      3   5  24
%  2   3  12   0   0
%  2   4  13   0   1
%      3   6  25
%  2   5  14   0   0
%  2   6  15   0   0
%  2   7  16   0   0
%  2   8  17   0   0
%  2   9  18   0   1
%      3   8  27
%  2  10  19   0   0
%
%  8  20  27  16  67
%  4   3  12   4   3   3   3   2   2   3  12   2   3   2   3   6 
%  3   1  20   0   0
%  3   2  21   0   0
%  3   3  22   0   0
%  3   4  23   0   0
%  3   5  24   1   0
%      2   2  11
%  3   6  25   1   0
%      2   4  13
%  3   7  26   0   0
%  3   8  27   1   0
%      2   9  18
%
% 10  28  37  17  77
%  4   3  18   6   3   2   3   6   3   3   3   4   6   2   3   2   6 
%  4   1  28   0   1
%      5   1  38
%  4   2  29   0   1
%      5   5  42
%  4   3  30   0   0
%  4   4  31   0   0
%  4   5  32   0   0
%  4   6  33   0   0
%  4   7  34   0   0
%  4   8  35   0   0
%  4   9  36   0   0
%  4  10  37   0   0
%
% 10  38  47  28 129
%  2   4  18   2   6   2   4   3   3   2   4   3   2   3   2  18   3   3   2   6   6   3   6   3   2  12   3   2 
%  5   1  38   1   0
%      4   1  28
%  5   2  39   0   0
%  5   3  40   0   0
%  5   4  41   0   0
%  5   5  42   1   0
%      4   2  29
%  5   6  43   0   1
%      6   2  49
%  5   7  44   0   0
%  5   8  45   0   0
%  5   9  46   0   0
%  5  10  47   0   0
%
%  9  48  56  22 105
%  6   6   2   4   4   3   6   3  12   6   4   2   6   6   2   2   6   6   2  12   3   2 
%  6   1  48   0   0
%  6   2  49   1   0
%      5   6  43
%  6   3  50   0   0
%  6   4  51   0   0
%  6   5  52   0   0
%  6   6  53   0   0
%  6   7  54   0   0
%  6   8  55   0   1
%      7   5  61
%  6   9  56   0   0
%
% 10  57  66  29 127
%  6   2   4   2   2   6   3   6   6   2   6   6   2   2   4   3   3   6   6   6   6   3   6   6   2   6   3   6   6 
%  7   1  57   0   1
%      8   6  72
%  7   2  58   0   0
%  7   3  59   0   0
%  7   4  60   0   0
%  7   5  61   1   0
%      6   8  55
%  7   6  62   0   0
%  7   7  63   0   0
%  7   8  64   0   1
%      8   7  73
%  7   9  65   0   0
%  7  10  66   0   0
%
%  8  67  74  22 126
%  6   3   3  12   6   3  12   4   2   6   6   4   4   6   6   6   3   6   3  18   3   4 
%  8   1  67   0   0
%  8   2  68   0   1
%      9   1  75
%  8   3  69   0   0
%  8   4  70   0   0
%  8   5  71   0   0
%  8   6  72   1   0
%      7   1  57
%  8   7  73   1   1
%      7   8  64
%      9   3  77
%  8   8  74   0   0
%
% 10  75  84  27 141
%  3  12   4   6   3   2   3   2   3   6   6  18   4   4  12   3   3   6   2   2   4   3   6   3   6  12   3 
%  9   1  75   1   0
%      8   2  68
%  9   2  76   0   0
%  9   3  77   1   0
%      8   7  73
%  9   4  78   0   0
%  9   5  79   0   0
%  9   6  80   0   0
%  9   7  81   0   0
%  9   8  82   0   1
%     10   3  87
%  9   9  83   0   0
%  9  10  84   0   0
%
%  8  85  92  24 109
% 18   2   6   4   2   3   3   6   3   2   3   6   6   2  12   3   4   2   4   3   4   6   3   2 
% 10   1  85   0   0
% 10   2  86   0   0
% 10   3  87   1   1
%      9   8  82
%     11   4  96
% 10   4  88   0   0
% 10   5  89   0   1
%     11   6  98
% 10   6  90   0   0
% 10   7  91   0   0
% 10   8  92   0   0
%
%  9  93 101  26 155
%  2   2   3   2  18  18  18   2   2   4   2   2   3   2  12   4   3   6   2   3   3   3   6  18  12   3 
% 11   1  93   0   0
% 11   2  94   0   0
% 11   3  95   0   1
%     12   1 102
% 11   4  96   1   0
%     10   3  87
% 11   5  97   0   0
% 11   6  98   1   0
%     10   5  89
% 11   7  99   0   0
% 11   8 100   0   0
% 11   9 101   0   0
%
%  8 102 109  19 106
%  3   3  12   2   4   2   6   4   3   3   3  18   2   2   6   3  18   6   6 
% 12   1 102   1   0
%     11   3  95
% 12   2 103   0   0
% 12   3 104   0   0
% 12   4 105   0   0
% 12   5 106   0   0
% 12   6 107   0   0
% 12   7 108   0   0
% 12   8 109   0   0
%
%819
